c generated by sgen1
c Command: ./sgen1 -unsat -n 29 
p cnf 29 68
-2 -3 -4 0
-1 -3 -4 0
-1 -2 -4 0
-1 -2 -3 0
-6 -7 -8 0
-5 -7 -8 0
-5 -6 -8 0
-5 -6 -7 0
-10 -11 -12 0
-9 -11 -12 0
-9 -10 -12 0
-9 -10 -11 0
-14 -15 -16 0
-13 -15 -16 0
-13 -14 -16 0
-13 -14 -15 0
-18 -19 -20 0
-17 -19 -20 0
-17 -18 -20 0
-17 -18 -19 0
-22 -23 -24 0
-21 -23 -24 0
-21 -22 -24 0
-21 -22 -23 0
-25 -26 -27  0
-25 -26 -28  0
-25 -26 -29  0
-25 -27 -28  0
-25 -27 -29  0
-25 -28 -29  0
-26 -27 -28  0
-26 -27 -29  0
-26 -28 -29  0
-27 -28 -29  0
14 19 8 0
28 19 8 0
28 14 8 0
28 14 19 0
5 3 26 0
24 3 26 0
24 5 26 0
24 5 3 0
9 13 22 0
25 13 22 0
25 9 22 0
25 9 13 0
7 15 2 0
11 15 2 0
11 7 2 0
11 7 15 0
21 4 18 0
29 4 18 0
29 21 18 0
29 21 4 0
1 20 27 0
12 20 27 0
12 1 27 0
12 1 20 0
17 6 23  0
17 6 10  0
17 6 16  0
17 23 10  0
17 23 16  0
17 10 16  0
6 23 10  0
6 23 16  0
6 10 16  0
23 10 16  0
